Minimize
2 u_0_1 + u_0_0 + 2 u_1_1 + u_1_0 + 2 u_2_1 + u_2_0 + 2 u_3_1 + u_3_0 + 2 u_4_1 + u_4_0 + 2 u_5_1 + u_5_0 + 2 u_6_1 + u_6_0 + 2 u_7_1 + u_7_0 + 2 u_8_1 + u_8_0 + 2 u_9_1 + u_9_0 + 2 u_10_1 + u_10_0 + 2 u_11_1 + u_11_0 + 2 u_12_1 + u_12_0 + 2 u_13_1 + u_13_0 + 2 u_14_1 + u_14_0 + 2 u_15_1 + u_15_0
Subject To
Binary
